benchmarks/bfuzz0/181571194422204139128716277522985532178.smt2
(set-logic QF_FP)
(declare-const x0 (_ FloatingPoint 11 53))
(declare-const x1 (_ FloatingPoint 11 53))
(declare-const x2 (_ FloatingPoint 11 53))
(declare-const x3 (_ FloatingPoint 11 53))
(declare-const x4 (_ FloatingPoint 11 53))
(declare-const x5 (_ FloatingPoint 11 53))
(declare-const x6 (_ FloatingPoint 11 53))
(declare-const x7 (_ FloatingPoint 11 53))
(declare-const x8 (_ FloatingPoint 11 53))
(declare-const x9 (_ FloatingPoint 11 53))
(declare-const x10 (_ FloatingPoint 11 53))
(declare-const x11 (_ FloatingPoint 11 53))
(declare-const x12 (_ FloatingPoint 11 53))
(declare-const x13 (_ FloatingPoint 11 53))
(declare-const x14 (_ FloatingPoint 11 53))
(declare-const x15 (_ FloatingPoint 11 53))
(declare-const x16 (_ FloatingPoint 11 53))
(declare-const x17 (_ FloatingPoint 11 53))
(declare-const x18 (_ FloatingPoint 11 53))
(assert (fp.leq (fp.mul RNE (fp.neg (fp.add RNE (fp.div RNE x7 x10) (fp.neg x6))) (fp.div RNE (fp.sub RNE (fp.sub RNE x18 x10) (fp.mul RNE x1 x12)) (fp.mul RNE (fp.add RNE x9 x1) (fp.add RNE x10 x0)))) (fp.add RNE (fp.mul RNE (fp.neg (fp.neg x12)) (fp.neg (fp.mul RNE x18 x13))) (fp.add RNE (fp.add RNE (fp.add RNE x16 x10) (fp.neg x12)) (fp.div RNE (fp.mul RNE x16 x9) (fp.div RNE x9 x1))))))
(assert (fp.lt (fp.div RNE (fp.neg (fp.neg (fp.div RNE x18 x10))) (fp.neg (fp.div RNE (fp.add RNE x2 x10) (fp.add RNE x13 x3)))) (fp.neg (fp.add RNE (fp.neg (fp.mul RNE x7 x1)) (fp.mul RNE (fp.add RNE x16 x11) (fp.add RNE x12 x17))))))
(assert (fp.eq (fp.sub RNE (fp.add RNE (fp.sub RNE (fp.mul RNE x4 x10) (fp.neg x15)) (fp.neg (fp.div RNE x11 x9))) (fp.add RNE (fp.add RNE (fp.neg x15) (fp.neg x18)) (fp.div RNE (fp.neg x18) (fp.mul RNE x15 x12)))) (fp.mul RNE (fp.div RNE (fp.add RNE (fp.neg x4) (fp.div RNE x13 x9)) (fp.sub RNE (fp.add RNE x12 x1) (fp.div RNE x18 x17))) (fp.neg (fp.neg (fp.neg x7))))))
(assert (fp.leq (fp.sub RNE (fp.div RNE (fp.sub RNE (fp.div RNE x2 x8) (fp.sub RNE x3 x0)) (fp.sub RNE (fp.div RNE x16 x14) (fp.div RNE x2 x18))) (fp.sub RNE (fp.neg (fp.add RNE x10 x4)) (fp.add RNE (fp.mul RNE x17 x16) (fp.sub RNE x0 x10)))) (fp.sub RNE (fp.neg (fp.sub RNE (fp.add RNE x2 x0) (fp.sub RNE x4 x4))) (fp.neg (fp.add RNE (fp.div RNE x15 x8) (fp.mul RNE x1 x18))))))
(assert (fp.eq (fp.add RNE (fp.mul RNE (fp.mul RNE (fp.add RNE x14 x1) (fp.neg x8)) (fp.mul RNE (fp.neg x16) (fp.add RNE x0 x15))) (fp.sub RNE (fp.div RNE (fp.mul RNE x3 x2) (fp.sub RNE x7 x16)) (fp.div RNE (fp.neg x12) (fp.add RNE x11 x13)))) (fp.sub RNE (fp.sub RNE (fp.div RNE (fp.div RNE x15 x17) (fp.add RNE x10 x17)) (fp.sub RNE (fp.mul RNE x0 x7) (fp.div RNE x13 x12))) (fp.sub RNE (fp.sub RNE (fp.sub RNE x3 x18) (fp.neg x3)) (fp.neg (fp.neg x6))))))
(assert (fp.leq (fp.neg (fp.mul RNE (fp.mul RNE (fp.sub RNE x11 x12) (fp.neg x4)) (fp.neg (fp.sub RNE x5 x10)))) (fp.mul RNE (fp.sub RNE (fp.div RNE (fp.div RNE x4 x6) (fp.add RNE x3 x6)) (fp.neg (fp.mul RNE x17 x15))) (fp.sub RNE (fp.sub RNE (fp.neg x16) (fp.neg x13)) (fp.div RNE (fp.sub RNE x1 x9) (fp.neg x9))))))
(assert (fp.leq (fp.div RNE (fp.sub RNE (fp.neg (fp.mul RNE x12 x3)) (fp.neg (fp.neg x14))) (fp.neg (fp.add RNE (fp.add RNE x0 x12) (fp.mul RNE x11 x9)))) (fp.sub RNE (fp.div RNE (fp.mul RNE (fp.neg x6) (fp.add RNE x15 x2)) (fp.mul RNE (fp.div RNE x16 x1) (fp.neg x13))) (fp.sub RNE (fp.add RNE (fp.div RNE x10 x6) (fp.neg x2)) (fp.add RNE (fp.mul RNE x17 x15) (fp.neg x14))))))
(assert (fp.gt (fp.div RNE (fp.mul RNE (fp.add RNE (fp.neg x14) (fp.mul RNE x7 x3)) (fp.div RNE (fp.neg x11) (fp.mul RNE x9 x15))) (fp.sub RNE (fp.add RNE (fp.neg x5) (fp.add RNE x5 x13)) (fp.add RNE (fp.add RNE x18 x10) (fp.add RNE x18 x2)))) (fp.add RNE (fp.neg (fp.add RNE (fp.div RNE x16 x8) (fp.neg x14))) (fp.div RNE (fp.add RNE (fp.mul RNE x4 x17) (fp.neg x10)) (fp.sub RNE (fp.neg x16) (fp.neg x10))))))
(assert (fp.leq (fp.div RNE (fp.neg (fp.add RNE (fp.sub RNE x3 x10) (fp.add RNE x6 x17))) (fp.neg (fp.div RNE (fp.add RNE x8 x14) (fp.neg x1)))) (fp.neg (fp.add RNE (fp.sub RNE (fp.div RNE x12 x0) (fp.add RNE x11 x16)) (fp.mul RNE (fp.neg x1) (fp.div RNE x13 x13))))))
(assert (fp.leq (fp.div RNE (fp.div RNE (fp.neg (fp.sub RNE x11 x1)) (fp.add RNE (fp.add RNE x1 x15) (fp.add RNE x10 x10))) (fp.neg (fp.div RNE (fp.sub RNE x4 x0) (fp.neg x10)))) (fp.add RNE (fp.neg (fp.sub RNE (fp.div RNE x5 x9) (fp.mul RNE x0 x13))) (fp.neg (fp.mul RNE (fp.add RNE x11 x4) (fp.add RNE x16 x3))))))
(assert (fp.lt (fp.neg (fp.div RNE (fp.div RNE (fp.neg x17) (fp.sub RNE x9 x2)) (fp.sub RNE (fp.div RNE x12 x12) (fp.sub RNE x7 x7)))) (fp.neg (fp.div RNE (fp.sub RNE (fp.mul RNE x13 x17) (fp.sub RNE x16 x12)) (fp.mul RNE (fp.sub RNE x6 x0) (fp.mul RNE x9 x6))))))
(assert (fp.eq (fp.div RNE (fp.div RNE (fp.div RNE (fp.sub RNE x3 x3) (fp.mul RNE x6 x15)) (fp.add RNE (fp.div RNE x2 x18) (fp.sub RNE x7 x17))) (fp.neg (fp.sub RNE (fp.sub RNE x7 x1) (fp.sub RNE x12 x2)))) (fp.sub RNE (fp.div RNE (fp.neg (fp.div RNE x11 x5)) (fp.div RNE (fp.add RNE x5 x7) (fp.add RNE x5 x12))) (fp.mul RNE (fp.div RNE (fp.sub RNE x14 x5) (fp.sub RNE x6 x6)) (fp.mul RNE (fp.sub RNE x3 x4) (fp.sub RNE x17 x13))))))
(assert (fp.eq (fp.mul RNE (fp.div RNE (fp.add RNE (fp.add RNE x18 x5) (fp.neg x4)) (fp.div RNE (fp.mul RNE x2 x12) (fp.add RNE x3 x18))) (fp.neg (fp.neg (fp.add RNE x3 x0)))) (fp.mul RNE (fp.sub RNE (fp.mul RNE (fp.add RNE x14 x14) (fp.sub RNE x15 x16)) (fp.neg (fp.mul RNE x8 x1))) (fp.add RNE (fp.add RNE (fp.neg x15) (fp.neg x0)) (fp.mul RNE (fp.neg x5) (fp.neg x16))))))
(assert (fp.eq (fp.div RNE (fp.neg (fp.div RNE (fp.mul RNE x16 x14) (fp.sub RNE x3 x12))) (fp.div RNE (fp.add RNE (fp.div RNE x14 x2) (fp.mul RNE x12 x7)) (fp.mul RNE (fp.mul RNE x1 x6) (fp.mul RNE x17 x17)))) (fp.mul RNE (fp.sub RNE (fp.add RNE (fp.div RNE x17 x10) (fp.sub RNE x8 x14)) (fp.div RNE (fp.sub RNE x10 x4) (fp.add RNE x9 x12))) (fp.add RNE (fp.mul RNE (fp.neg x11) (fp.mul RNE x6 x4)) (fp.neg (fp.neg x9))))))
(assert (fp.eq (fp.sub RNE (fp.add RNE (fp.sub RNE (fp.div RNE x5 x4) (fp.add RNE x17 x12)) (fp.div RNE (fp.sub RNE x18 x3) (fp.sub RNE x7 x2))) (fp.div RNE (fp.add RNE (fp.add RNE x5 x3) (fp.neg x16)) (fp.neg (fp.sub RNE x10 x9)))) (fp.mul RNE (fp.add RNE (fp.mul RNE (fp.add RNE x10 x13) (fp.sub RNE x17 x18)) (fp.mul RNE (fp.div RNE x5 x0) (fp.div RNE x8 x6))) (fp.sub RNE (fp.add RNE (fp.add RNE x14 x17) (fp.div RNE x6 x4)) (fp.div RNE (fp.sub RNE x14 x3) (fp.add RNE x10 x6))))))
(assert (fp.geq (fp.mul RNE (fp.neg (fp.neg (fp.neg x15))) (fp.mul RNE (fp.div RNE (fp.div RNE x9 x3) (fp.add RNE x10 x17)) (fp.add RNE (fp.div RNE x9 x12) (fp.neg x17)))) (fp.mul RNE (fp.add RNE (fp.sub RNE (fp.neg x3) (fp.sub RNE x11 x10)) (fp.neg (fp.sub RNE x16 x17))) (fp.mul RNE (fp.div RNE (fp.div RNE x5 x4) (fp.add RNE x18 x6)) (fp.add RNE (fp.add RNE x13 x13) (fp.sub RNE x1 x11))))))
(check-sat)
