db/data/181571194422204139128716277522985532178.z3.out
solvers/z3/run.sh: line 2:  4096 Killed                  z3 -smt2 $1
-------------------
91.101644797
